400
[40,42,43,44,45,46,48,49,50,51,52,53,54,55,56,57,58,61,62,63,64,65,66,67,68,72,74,75,77,78,79,80,81,82,84,85,86,88,90,91,92,93,94,95,96,97,98,99,100,101,102,103,104,105,106,107,109,111,112,113,114,115,118,120,121,122,123,124,125,126,127,128,129,130,131,132,133,134,135,136,137,138,139,140,142,143,144,145,146,147,148,149,151,152,154,155,157,158,159,160,161,162,163,164,165,166,167,168,169,170,171,172,173,174,175,176,177,178,179,181,182,183,185,186,187,188,189,190,192,193,194,196,197,198,200,201,202,203,205,206,207,208,209,210,211,212,213,214,215,216,217,218,219,220,222,223,224,225,226,228,229,230,232,234,235,236,237,238,239,240,243,244,245,246,248,250,251,252,253,255,256,257,258,260,261,262,263,265,266,268,269,270,271,272,273,274,275,276,277,278,279,280,282,283,284,285,286,287,288,289,292,293,295,296,297,298,299,300,301,302,303,304,305,306,307,308,309,310,311,312,314,315,316,317,319,320]
[3,2,1,1,3,1,3,4,4,2,4,2,2,1,1,3,2,3,4,2,2,1,1,4,4,2,3,1,1,2,2,2,1,3,5,1,1,1,1,1,4,3,2,4,2,2,2,2,3,3,2,3,1,1,2,2,3,2,3,1,2,2,2,4,1,3,1,1,6,1,3,4,3,4,4,3,5,3,1,2,3,2,3,3,1,2,1,2,2,3,4,1,1,1,2,4,3,1,2,1,2,3,4,3,4,3,1,1,4,1,2,1,2,3,4,2,2,1,2,1,1,1,2,1,2,2,1,2,2,1,1,1,2,1,3,1,1,2,2,2,3,2,3,1,1,1,1,1,2,1,2,2,1,4,3,1,2,4,2,1,1,2,2,2,1,1,2,2,2,4,3,1,1,2,4,1,2,1,2,1,3,2,4,1,2,2,1,2,2,1,3,1,1,2,2,4,3,1,1,1,2,3,3,1,3,1,2,1,1,1,2,3,2,2,2,1,3,2,3,1,2,2,2,2,2,3,5,1,3,2,2,4,1,4,3,1]
